proyfinal/src/viki/013/andrea/andrea-localstore/experimentInOfficeAgust.take6/worker_3/c2184679-a33a-4655-bb41-e52d13e56c35.als.cnf.out
Reading from standard input... Use '--help' for help.
============================[ Problem Statistics ]=============================
|                                                                             |
|  Number of variables:         87638                                         |
|  Number of clauses:          161767                                         |
|  Parse time:                   0.04 s                                       |
|                                                                             |
============================[ Search Statistics ]==============================
| Conflicts |          ORIGINAL         |          LEARNT          | Progress |
|           |    Vars  Clauses Literals |    Limit  Clauses Lit/Cl |          |
===============================================================================
|       100 |   61876   103502   258131 |    37950      100      9 | 29.396 % |
|       250 |   61874   103502   258131 |    41745      249     19 | 29.398 % |
|       475 |   61873   103451   258023 |    45920      473     31 | 29.399 % |
|       812 |   61873   103451   258023 |    50512      810     47 | 29.399 % |
|      1318 |   61873   103451   258023 |    55563     1316     81 | 29.399 % |
|      2077 |   61873   103451   258023 |    61120     2075     82 | 29.399 % |
|      3216 |   61873   103451   258023 |    67232     3214    115 | 29.399 % |
|      4924 |   61872   103449   258019 |    73955     4921    115 | 29.400 % |
|      7486 |   51254    72122   181437 |    81350     6540     90 | 41.516 % |
|     11330 |   50993    71039   178853 |    89485     9868     81 | 41.814 % |
===============================================================================
restarts              : 61
conflicts             : 14340          (8213 /sec)
decisions             : 44944          (0.00 % random) (25741 /sec)
propagations          : 20052288       (11484833 /sec)
conflict literals     : 1063039        (42.26 % deleted)
Memory used           : 35.52 MB
CPU time              : 1.74598 s

UNSATISFIABLE
